src/graph_classification/0input.res
0input 38 6 3 0.12
5    0    4    3    0          5.00      0.00
5    4   -1   -1    0 1000000000000000019884624838656.00      0.00
5    3   -1   -1    0 1000000000000000019884624838656.00      0.12
