src/graph_classification/0input.sol
78
0 65 45 41 13 12 49 72 21 23 
69 39 30 76 64 15 71 56 14 10 
3 35 52 29 74 73 20 54 36 28 
53 42 62 59 67 51 47 34 27 6 
24 4 57 1 33 40 9 50 5 38 
70 44 66 2 32 7 60 55 11 18 
37 43 8 46 61 22 25 31 75 63 
58 17 77 16 48 68 26 19 
